unsat
(error "line 2441 column 17: model is not available")
(error "line 2442 column 17: model is not available")
(error "line 2443 column 18: model is not available")
(error "line 2444 column 19: model is not available")
(error "line 2445 column 19: model is not available")
(error "line 2446 column 19: model is not available")
(error "line 2447 column 19: model is not available")
(error "line 2448 column 19: model is not available")
(error "line 2449 column 19: model is not available")
(error "line 2450 column 19: model is not available")
(error "line 2451 column 19: model is not available")
(error "line 2452 column 19: model is not available")
(error "line 2453 column 19: model is not available")
(error "line 2454 column 18: model is not available")
(error "line 2455 column 19: model is not available")
(error "line 2456 column 19: model is not available")
(error "line 2457 column 19: model is not available")
(error "line 2458 column 19: model is not available")
(error "line 2459 column 19: model is not available")
(error "line 2460 column 19: model is not available")
(error "line 2461 column 19: model is not available")
(error "line 2462 column 19: model is not available")
(error "line 2463 column 19: model is not available")
(error "line 2464 column 19: model is not available")
(error "line 2465 column 18: model is not available")
(error "line 2466 column 19: model is not available")
(error "line 2467 column 19: model is not available")
(error "line 2468 column 19: model is not available")
(error "line 2469 column 19: model is not available")
(error "line 2470 column 19: model is not available")
(error "line 2471 column 19: model is not available")
(error "line 2472 column 19: model is not available")
(error "line 2473 column 19: model is not available")
(error "line 2474 column 19: model is not available")
(error "line 2475 column 19: model is not available")
(error "line 2476 column 18: model is not available")
(error "line 2477 column 19: model is not available")
(error "line 2478 column 19: model is not available")
(error "line 2479 column 19: model is not available")
(error "line 2480 column 19: model is not available")
(error "line 2481 column 19: model is not available")
(error "line 2482 column 19: model is not available")
(error "line 2483 column 19: model is not available")
(error "line 2484 column 19: model is not available")
(error "line 2485 column 19: model is not available")
(error "line 2486 column 19: model is not available")
(error "line 2487 column 18: model is not available")
(error "line 2488 column 19: model is not available")
(error "line 2489 column 19: model is not available")
(error "line 2490 column 19: model is not available")
(error "line 2491 column 19: model is not available")
(error "line 2492 column 19: model is not available")
(error "line 2493 column 19: model is not available")
(error "line 2494 column 19: model is not available")
(error "line 2495 column 19: model is not available")
(error "line 2496 column 19: model is not available")
(error "line 2497 column 19: model is not available")
(error "line 2498 column 18: model is not available")
(error "line 2499 column 19: model is not available")
(error "line 2500 column 19: model is not available")
(error "line 2501 column 19: model is not available")
(error "line 2502 column 19: model is not available")
(error "line 2503 column 19: model is not available")
(error "line 2504 column 19: model is not available")
(error "line 2505 column 19: model is not available")
(error "line 2506 column 19: model is not available")
(error "line 2507 column 19: model is not available")
(error "line 2508 column 19: model is not available")
(error "line 2509 column 18: model is not available")
(error "line 2510 column 19: model is not available")
(error "line 2511 column 19: model is not available")
(error "line 2512 column 19: model is not available")
(error "line 2513 column 19: model is not available")
(error "line 2514 column 19: model is not available")
(error "line 2515 column 19: model is not available")
(error "line 2516 column 19: model is not available")
(error "line 2517 column 19: model is not available")
(error "line 2518 column 19: model is not available")
(error "line 2519 column 19: model is not available")
(error "line 2520 column 18: model is not available")
(error "line 2521 column 19: model is not available")
(error "line 2522 column 19: model is not available")
(error "line 2523 column 19: model is not available")
(error "line 2524 column 19: model is not available")
(error "line 2525 column 19: model is not available")
(error "line 2526 column 19: model is not available")
(error "line 2527 column 19: model is not available")
(error "line 2528 column 19: model is not available")
(error "line 2529 column 18: model is not available")
(error "line 2530 column 18: model is not available")
(error "line 2531 column 17: model is not available")
(error "line 2532 column 18: model is not available")
(error "line 2533 column 18: model is not available")
(error "line 2534 column 18: model is not available")
(error "line 2535 column 18: model is not available")
(error "line 2536 column 18: model is not available")
(error "line 2537 column 18: model is not available")
(error "line 2538 column 18: model is not available")
(error "line 2539 column 18: model is not available")
(error "line 2540 column 18: model is not available")
(error "line 2541 column 18: model is not available")
(error "line 2542 column 17: model is not available")
(error "line 2543 column 18: model is not available")
(error "line 2544 column 18: model is not available")
(error "line 2545 column 18: model is not available")
(error "line 2546 column 18: model is not available")
(error "line 2547 column 18: model is not available")
(error "line 2548 column 18: model is not available")
(error "line 2549 column 18: model is not available")
(error "line 2550 column 18: model is not available")
(error "line 2551 column 18: model is not available")
(error "line 2552 column 18: model is not available")
(error "line 2553 column 17: model is not available")
(error "line 2554 column 18: model is not available")
(error "line 2555 column 18: model is not available")
(error "line 2556 column 18: model is not available")
(error "line 2557 column 18: model is not available")
(error "line 2558 column 18: model is not available")
(error "line 2559 column 18: model is not available")
(error "line 2560 column 18: model is not available")
(error "line 2561 column 18: model is not available")
(error "line 2562 column 18: model is not available")
(error "line 2563 column 18: model is not available")
(error "line 2564 column 17: model is not available")
(error "line 2565 column 18: model is not available")
(error "line 2566 column 18: model is not available")
(error "line 2567 column 18: model is not available")
(error "line 2568 column 18: model is not available")
(error "line 2569 column 18: model is not available")
(error "line 2570 column 18: model is not available")
(error "line 2571 column 18: model is not available")
(error "line 2572 column 18: model is not available")
(error "line 2573 column 18: model is not available")
(error "line 2574 column 18: model is not available")
(error "line 2575 column 17: model is not available")
(error "line 2576 column 18: model is not available")
(error "line 2577 column 18: model is not available")
(error "line 2578 column 18: model is not available")
(error "line 2579 column 18: model is not available")
(error "line 2580 column 18: model is not available")
(error "line 2581 column 18: model is not available")
(error "line 2582 column 18: model is not available")
(error "line 2583 column 18: model is not available")
(error "line 2584 column 18: model is not available")
(error "line 2585 column 18: model is not available")
(error "line 2586 column 17: model is not available")
(error "line 2587 column 18: model is not available")
(error "line 2588 column 18: model is not available")
(error "line 2589 column 18: model is not available")
(error "line 2590 column 18: model is not available")
(error "line 2591 column 18: model is not available")
(error "line 2592 column 18: model is not available")
(error "line 2593 column 18: model is not available")
(error "line 2594 column 18: model is not available")
(error "line 2595 column 18: model is not available")
(error "line 2596 column 18: model is not available")
(error "line 2597 column 17: model is not available")
(error "line 2598 column 18: model is not available")
(error "line 2599 column 18: model is not available")
(error "line 2600 column 18: model is not available")
(error "line 2601 column 18: model is not available")
(error "line 2602 column 18: model is not available")
(error "line 2603 column 18: model is not available")
(error "line 2604 column 18: model is not available")
(error "line 2605 column 18: model is not available")
(error "line 2606 column 18: model is not available")
(error "line 2607 column 18: model is not available")
(error "line 2608 column 17: model is not available")
(error "line 2609 column 18: model is not available")
(error "line 2610 column 18: model is not available")
(error "line 2611 column 18: model is not available")
(error "line 2612 column 18: model is not available")
(error "line 2613 column 18: model is not available")
(error "line 2614 column 18: model is not available")
(error "line 2615 column 18: model is not available")
(error "line 2616 column 18: model is not available")
(error "line 2617 column 18: model is not available")
(error "line 2618 column 18: model is not available")
(error "line 2619 column 38: model is not available")
(error "line 2620 column 45: model is not available")
(error "line 2621 column 38: model is not available")
(error "line 2622 column 45: model is not available")
(error "line 2623 column 46: model is not available")
(error "line 2624 column 53: model is not available")
(error "line 2625 column 40: model is not available")
(error "line 2626 column 47: model is not available")
(error "line 2627 column 38: model is not available")
(error "line 2628 column 45: model is not available")
(error "line 2629 column 38: model is not available")
(error "line 2630 column 45: model is not available")
(error "line 2631 column 41: model is not available")
(error "line 2632 column 48: model is not available")
(error "line 2633 column 41: model is not available")
(error "line 2634 column 48: model is not available")
(error "line 2635 column 41: model is not available")
(error "line 2636 column 48: model is not available")
(error "line 2637 column 41: model is not available")
(error "line 2638 column 41: model is not available")
(error "line 2639 column 48: model is not available")
(error "line 2640 column 41: model is not available")
(error "line 2641 column 48: model is not available")
(error "line 2642 column 41: model is not available")
(error "line 2643 column 48: model is not available")
(error "line 2644 column 37: model is not available")
(error "line 2645 column 44: model is not available")
(error "line 2646 column 42: model is not available")
(error "line 2647 column 42: model is not available")
(error "line 2648 column 42: model is not available")
(error "line 2649 column 38: model is not available")
(error "line 2650 column 38: model is not available")
(error "line 2651 column 38: model is not available")
(error "line 2652 column 38: model is not available")
(error "line 2653 column 38: model is not available")
(error "line 2654 column 41: model is not available")
(error "line 2655 column 48: model is not available")
(error "line 2656 column 41: model is not available")
(error "line 2657 column 48: model is not available")
(error "line 2658 column 41: model is not available")
(error "line 2659 column 48: model is not available")
(error "line 2660 column 54: model is not available")
(error "line 2661 column 54: model is not available")
(error "line 2662 column 18: model is not available")
(error "line 2663 column 20: model is not available")
(error "line 2664 column 27: model is not available")
(error "line 2665 column 20: model is not available")
(error "line 2666 column 27: model is not available")
(error "line 2667 column 20: model is not available")
(error "line 2668 column 27: model is not available")
(error "line 2669 column 20: model is not available")
(error "line 2670 column 27: model is not available")
(error "line 2671 column 21: model is not available")
(error "line 2672 column 28: model is not available")
(error "line 2673 column 21: model is not available")
(error "line 2674 column 28: model is not available")
(error "line 2675 column 21: model is not available")
(error "line 2676 column 28: model is not available")
(error "line 2677 column 39: model is not available")
(error "line 2678 column 39: model is not available")
(error "line 2679 column 39: model is not available")
(error "line 2680 column 39: model is not available")
(error "line 2681 column 39: model is not available")
(error "line 2682 column 39: model is not available")
(error "line 2683 column 39: model is not available")
(error "line 2684 column 39: model is not available")
(error "line 2685 column 39: model is not available")
(error "line 2686 column 39: model is not available")
(error "line 2687 column 39: model is not available")
(error "line 2688 column 38: model is not available")
(error "line 2689 column 39: model is not available")
(error "line 2690 column 39: model is not available")
(error "line 2691 column 38: model is not available")
(error "line 2692 column 38: model is not available")
(error "line 2693 column 38: model is not available")
(error "line 2694 column 38: model is not available")
(error "line 2695 column 38: model is not available")
(error "line 2696 column 38: model is not available")
(error "line 2697 column 38: model is not available")
(error "line 2698 column 38: model is not available")
(error "line 2699 column 16: model is not available")
(error "line 2700 column 18: model is not available")
(error "line 2701 column 25: model is not available")
(error "line 2702 column 19: model is not available")
(error "line 2703 column 19: model is not available")
(error "line 2704 column 26: model is not available")
(error "line 2705 column 19: model is not available")
(error "line 2706 column 26: model is not available")
(error "line 2707 column 19: model is not available")
(error "line 2708 column 19: model is not available")
(error "line 2709 column 26: model is not available")
(error "line 2710 column 18: model is not available")
(error "line 2711 column 25: model is not available")
(error "line 2712 column 18: model is not available")
(error "line 2713 column 25: model is not available")
(error "line 2714 column 18: model is not available")
(error "line 2715 column 18: model is not available")
(error "line 2716 column 25: model is not available")
(error "line 2717 column 18: model is not available")
(error "line 2718 column 25: model is not available")
(error "line 2719 column 18: model is not available")
(error "line 2720 column 18: model is not available")
(error "line 2721 column 25: model is not available")
(error "line 2722 column 18: model is not available")
(error "line 2723 column 25: model is not available")
(error "line 2724 column 36: model is not available")
(error "line 2725 column 36: model is not available")
(error "line 2726 column 36: model is not available")
(error "line 2727 column 31: model is not available")
(error "line 2728 column 33: model is not available")
(error "line 2729 column 40: model is not available")
(error "line 2730 column 33: model is not available")
(error "line 2731 column 40: model is not available")
(error "line 2732 column 33: model is not available")
(error "line 2733 column 40: model is not available")
(error "line 2734 column 33: model is not available")
(error "line 2735 column 40: model is not available")
(error "line 2736 column 31: model is not available")
(error "line 2737 column 33: model is not available")
(error "line 2738 column 40: model is not available")
(error "line 2739 column 33: model is not available")
(error "line 2740 column 40: model is not available")
(error "line 2741 column 33: model is not available")
(error "line 2742 column 40: model is not available")
(error "line 2743 column 33: model is not available")
(error "line 2744 column 40: model is not available")
(error "line 2745 column 52: model is not available")
(error "line 2746 column 51: model is not available")
(error "line 2747 column 53: model is not available")
(error "line 2748 column 53: model is not available")
(error "line 2749 column 53: model is not available")
(error "line 2750 column 53: model is not available")
(error "line 2751 column 52: model is not available")
(error "line 2752 column 52: model is not available")
(error "line 2753 column 51: model is not available")
(error "line 2754 column 51: model is not available")
(error "line 2755 column 53: model is not available")
(error "line 2756 column 53: model is not available")
(error "line 2757 column 53: model is not available")
(error "line 2758 column 53: model is not available")
(error "line 2759 column 52: model is not available")
(error "line 2760 column 52: model is not available")
(error "line 2761 column 51: model is not available")
(error "line 2762 column 51: model is not available")
(error "line 2763 column 52: model is not available")
(error "line 2764 column 52: model is not available")
(error "line 2765 column 51: model is not available")
(error "line 2766 column 51: model is not available")
(error "line 2767 column 52: model is not available")
(error "line 2768 column 51: model is not available")
(error "line 2769 column 52: model is not available")
(error "line 2770 column 51: model is not available")
(error "line 2771 column 51: model is not available")
(error "line 2772 column 52: model is not available")
(error "line 2773 column 51: model is not available")
(error "line 2774 column 52: model is not available")
(error "line 2775 column 52: model is not available")
(error "line 2776 column 51: model is not available")
(error "line 2777 column 51: model is not available")
(error "line 2778 column 51: model is not available")
(error "line 2779 column 52: model is not available")
(error "line 2780 column 52: model is not available")
(error "line 2781 column 52: model is not available")
(error "line 2782 column 51: model is not available")
(error "line 2783 column 52: model is not available")
(error "line 2784 column 51: model is not available")
(error "line 2785 column 52: model is not available")
(error "line 2786 column 51: model is not available")
(error "line 2787 column 52: model is not available")
(error "line 2788 column 51: model is not available")
(error "line 2789 column 52: model is not available")
(error "line 2790 column 51: model is not available")
(error "line 2791 column 51: model is not available")
(error "line 2792 column 51: model is not available")
(error "line 2793 column 51: model is not available")
(error "line 2794 column 52: model is not available")
(error "line 2795 column 52: model is not available")
(error "line 2796 column 52: model is not available")
(error "line 2797 column 51: model is not available")
(error "line 2798 column 51: model is not available")
(error "line 2799 column 56: model is not available")
(error "line 2800 column 57: model is not available")
(error "line 2801 column 56: model is not available")
(error "line 2802 column 56: model is not available")
(error "line 2803 column 56: model is not available")
(error "line 2804 column 56: model is not available")
(error "line 2805 column 56: model is not available")
(error "line 2806 column 57: model is not available")
(error "line 2807 column 56: model is not available")
(error "line 2808 column 56: model is not available")
(error "line 2809 column 56: model is not available")
(error "line 2810 column 55: model is not available")
(error "line 2811 column 56: model is not available")
(error "line 2812 column 56: model is not available")
(error "line 2813 column 55: model is not available")
(error "line 2814 column 55: model is not available")
(error "line 2815 column 55: model is not available")
(error "line 2816 column 36: model is not available")
(error "line 2817 column 35: model is not available")
(error "line 2818 column 35: model is not available")
(error "line 2819 column 35: model is not available")
(error "line 2820 column 35: model is not available")
(error "line 2821 column 35: model is not available")
(error "line 2822 column 35: model is not available")
(error "line 2823 column 35: model is not available")
(error "line 2824 column 35: model is not available")
(error "line 2825 column 54: model is not available")
(error "line 2826 column 54: model is not available")
(error "line 2827 column 54: model is not available")
(error "line 2828 column 54: model is not available")
(error "line 2829 column 54: model is not available")
(error "line 2830 column 54: model is not available")
(error "line 2831 column 54: model is not available")
(error "line 2832 column 54: model is not available")
(error "line 2833 column 54: model is not available")
(error "line 2834 column 31: model is not available")
(error "line 2835 column 38: model is not available")
(error "line 2836 column 38: model is not available")
(error "line 2837 column 46: model is not available")
(error "line 2838 column 46: model is not available")
(error "line 2839 column 46: model is not available")
(error "line 2840 column 46: model is not available")
(error "line 2841 column 54: model is not available")
(error "line 2842 column 54: model is not available")
(error "line 2843 column 54: model is not available")
(error "line 2844 column 54: model is not available")
(error "line 2845 column 54: model is not available")
(error "line 2846 column 54: model is not available")
(error "line 2847 column 40: model is not available")
(error "line 2848 column 40: model is not available")
(error "line 2849 column 40: model is not available")
(error "line 2850 column 40: model is not available")
(error "line 2851 column 41: model is not available")
(error "line 2852 column 41: model is not available")
(error "line 2853 column 41: model is not available")
(error "line 2854 column 41: model is not available")
(error "line 2855 column 50: model is not available")
(error "line 2856 column 50: model is not available")
(error "line 2857 column 50: model is not available")
(error "line 2858 column 50: model is not available")
(error "line 2859 column 43: model is not available")
(error "line 2860 column 43: model is not available")
(error "line 2861 column 43: model is not available")
(error "line 2862 column 43: model is not available")
(error "line 2863 column 44: model is not available")
(error "line 2864 column 44: model is not available")
(error "line 2865 column 45: model is not available")
(error "line 2866 column 45: model is not available")
(error "line 2867 column 45: model is not available")
(error "line 2868 column 45: model is not available")
(error "line 2869 column 45: model is not available")
(error "line 2870 column 44: model is not available")
(error "line 2871 column 44: model is not available")
(error "line 2872 column 44: model is not available")
(error "line 2873 column 44: model is not available")
(error "line 2874 column 44: model is not available")
(error "line 2875 column 44: model is not available")
(error "line 2876 column 44: model is not available")
(error "line 2877 column 44: model is not available")
(error "line 2878 column 44: model is not available")
(error "line 2879 column 44: model is not available")
(error "line 2880 column 41: model is not available")
(error "line 2881 column 41: model is not available")
(error "line 2882 column 44: model is not available")
(error "line 2883 column 44: model is not available")
(error "line 2884 column 50: model is not available")
(error "line 2885 column 50: model is not available")
(error "line 2886 column 50: model is not available")
(error "line 2887 column 46: model is not available")
(error "line 2888 column 50: model is not available")
(error "line 2889 column 50: model is not available")
(error "line 2890 column 50: model is not available")
(error "line 2891 column 50: model is not available")
(error "line 2892 column 50: model is not available")
(error "line 2893 column 46: model is not available")
(error "line 2894 column 46: model is not available")
(error "line 2895 column 52: model is not available")
(error "line 2896 column 52: model is not available")
(error "line 2897 column 52: model is not available")
(error "line 2898 column 52: model is not available")
(error "line 2899 column 48: model is not available")
(error "line 2900 column 48: model is not available")
(error "line 2901 column 36: model is not available")
(error "line 2902 column 36: model is not available")
(error "line 2903 column 36: model is not available")
(error "line 2904 column 36: model is not available")
(error "line 2905 column 36: model is not available")
(error "line 2906 column 36: model is not available")
(error "line 2907 column 55: model is not available")
(error "line 2908 column 55: model is not available")
(error "line 2909 column 55: model is not available")
(error "line 2910 column 55: model is not available")
(error "line 2911 column 55: model is not available")
(error "line 2912 column 32: model is not available")
(error "line 2913 column 28: model is not available")
(error "line 2914 column 26: model is not available")
(error "line 2915 column 43: model is not available")
(error "line 2916 column 43: model is not available")
(error "line 2917 column 34: model is not available")
(error "line 2918 column 34: model is not available")
(error "line 2919 column 30: model is not available")
(error "line 2920 column 30: model is not available")
(error "line 2921 column 50: model is not available")
(error "line 2922 column 50: model is not available")
(error "line 2923 column 29: model is not available")
(error "line 2924 column 29: model is not available")
(error "line 2925 column 29: model is not available")
(error "line 2926 column 31: model is not available")
(error "line 2927 column 31: model is not available")
(error "line 2928 column 28: model is not available")
(error "line 2929 column 34: model is not available")
(error "line 2930 column 34: model is not available")
(error "line 2931 column 49: model is not available")
(error "line 2932 column 49: model is not available")
(error "line 2933 column 49: model is not available")
(error "line 2934 column 49: model is not available")
(error "line 2935 column 49: model is not available")
(error "line 2936 column 29: model is not available")
(error "line 2937 column 29: model is not available")
(error "line 2938 column 29: model is not available")
(error "line 2939 column 28: model is not available")
(error "line 2940 column 20: model is not available")
(error "line 2941 column 27: model is not available")
(error "line 2942 column 20: model is not available")
(error "line 2943 column 27: model is not available")
(error "line 2944 column 20: model is not available")
(error "line 2945 column 27: model is not available")
(error "line 2946 column 20: model is not available")
(error "line 2947 column 27: model is not available")
(error "line 2948 column 20: model is not available")
(error "line 2949 column 27: model is not available")
(error "line 2950 column 20: model is not available")
(error "line 2951 column 27: model is not available")
(error "line 2952 column 20: model is not available")
(error "line 2953 column 27: model is not available")
(error "line 2954 column 20: model is not available")
(error "line 2955 column 27: model is not available")
(error "line 2956 column 20: model is not available")
(error "line 2957 column 27: model is not available")
(error "line 2959 column 10: model is not available")
(:added-eqs                      390
 :arith-bound-propagations-cheap 27
 :arith-bound-propagations-lp    101
 :arith-conflicts                1
 :arith-lower                    90
 :arith-make-feasible            23
 :arith-max-columns              140
 :arith-max-rows                 99
 :arith-propagations             27
 :arith-upper                    62
 :array-ax1                      1
 :array-ax2                      1
 :binary-propagations            7164
 :bv-bit2core                    5684
 :bv-diseqs                      3
 :bv-dynamic-diseqs              11
 :bv->core-eq                    141
 :conflicts                      24
 :decisions                      277
 :del-clause                     386
 :eliminated-applications        24
 :eliminated-vars                19
 :max-memory                     8.57
 :memory                         4.08
 :minimized-lits                 5
 :mk-bool-var                    5858
 :mk-clause                      9590
 :num-allocs                     6044342
 :num-checks                     1
 :propagations                   22645
 :rlimit-count                   110742
 :time                           0.03
 :total-time                     0.04)

real	0m0.040s
user	0m0.036s
sys	0m0.003s
State: RE Run_time: 0.041718244552612305